(set-option :produce-models true)
(set-option :produce-unsat-cores true)
(set-option :produce-interpolants true)
(set-option :interpolant-check-mode true)
(set-option :proof-transformation LU)
(set-logic ALL)
(set-info :source |SMT script generated on 2024-03-31T00:10:19+01:00 by Ultimate (https://ultimate.informatik.uni-freiburg.de/)|)
(set-info :smt-lib-version 2.5)
(set-info :category "industrial")
(set-info :ultimate-id nested_4.c_AllErrorsAtOnce_Iteration17)
(declare-fun |c_old(#valid)| () (Array Int Int))
(declare-fun |c_old(#valid)_primed| () (Array Int Int))
(declare-fun |c_#valid| () (Array Int Int))
(declare-fun |c_#valid_primed| () (Array Int Int))
(declare-fun |c_old(#length)| () (Array Int Int))
(declare-fun |c_old(#length)_primed| () (Array Int Int))
(declare-fun |c_#length| () (Array Int Int))
(declare-fun |c_#length_primed| () (Array Int Int))
(declare-fun |c_old(#memory_int#0)| () (Array Int (Array Int Int)))
(declare-fun |c_old(#memory_int#0)_primed| () (Array Int (Array Int Int)))
(declare-fun |c_#memory_int#0| () (Array Int (Array Int Int)))
(declare-fun |c_#memory_int#0_primed| () (Array Int (Array Int Int)))
(declare-fun |c_old(#StackHeapBarrier)| () Int)
(declare-fun |c_old(#StackHeapBarrier)_primed| () Int)
(declare-fun |c_#StackHeapBarrier| () Int)
(declare-fun |c_#StackHeapBarrier_primed| () Int)
(declare-fun |c_#Ultimate.allocInit_~size| () Int)
(declare-fun |c_#Ultimate.allocInit_~size_primed| () Int)
(declare-fun |c_#Ultimate.allocInit_ptrBase| () Int)
(declare-fun |c_#Ultimate.allocInit_ptrBase_primed| () Int)
(declare-fun |c_read~int#0_#ptr.base| () Int)
(declare-fun |c_read~int#0_#ptr.base_primed| () Int)
(declare-fun |c_read~int#0_#ptr.offset| () Int)
(declare-fun |c_read~int#0_#ptr.offset_primed| () Int)
(declare-fun |c_read~int#0_#sizeOfReadType| () Int)
(declare-fun |c_read~int#0_#sizeOfReadType_primed| () Int)
(declare-fun |c_read~int#0_#value| () Int)
(declare-fun |c_read~int#0_#value_primed| () Int)
(declare-fun |c_ULTIMATE.start_#t~ret8| () Int)
(declare-fun |c_ULTIMATE.start_#t~ret8_primed| () Int)
(declare-fun |c_main_#res| () Int)
(declare-fun |c_main_#res_primed| () Int)
(declare-fun |c_main_#t~pre4| () Int)
(declare-fun |c_main_#t~pre4_primed| () Int)
(declare-fun |c_main_#t~pre5| () Int)
(declare-fun |c_main_#t~pre5_primed| () Int)
(declare-fun |c_main_#t~pre6| () Int)
(declare-fun |c_main_#t~pre6_primed| () Int)
(declare-fun |c_main_#t~pre7| () Int)
(declare-fun |c_main_#t~pre7_primed| () Int)
(declare-fun c_main_~a~0 () Int)
(declare-fun c_main_~a~0_primed () Int)
(declare-fun c_main_~b~0 () Int)
(declare-fun c_main_~b~0_primed () Int)
(declare-fun c_main_~c~0 () Int)
(declare-fun c_main_~c~0_primed () Int)
(declare-fun c_main_~d~0 () Int)
(declare-fun c_main_~d~0_primed () Int)
(declare-fun |c_write~int#0_#value| () Int)
(declare-fun |c_write~int#0_#value_primed| () Int)
(declare-fun |c_write~int#0_#ptr.base| () Int)
(declare-fun |c_write~int#0_#ptr.base_primed| () Int)
(declare-fun |c_write~int#0_#ptr.offset| () Int)
(declare-fun |c_write~int#0_#ptr.offset_primed| () Int)
(declare-fun |c_write~int#0_#sizeOfWrittenType| () Int)
(declare-fun |c_write~int#0_#sizeOfWrittenType_primed| () Int)
(declare-fun |c___assert_fail_#in~0.base| () Int)
(declare-fun |c___assert_fail_#in~0.base_primed| () Int)
(declare-fun |c___assert_fail_#in~0.offset| () Int)
(declare-fun |c___assert_fail_#in~0.offset_primed| () Int)
(declare-fun |c___assert_fail_#in~1.base| () Int)
(declare-fun |c___assert_fail_#in~1.base_primed| () Int)
(declare-fun |c___assert_fail_#in~1.offset| () Int)
(declare-fun |c___assert_fail_#in~1.offset_primed| () Int)
(declare-fun |c___assert_fail_#in~2| () Int)
(declare-fun |c___assert_fail_#in~2_primed| () Int)
(declare-fun |c___assert_fail_#in~3.base| () Int)
(declare-fun |c___assert_fail_#in~3.base_primed| () Int)
(declare-fun |c___assert_fail_#in~3.offset| () Int)
(declare-fun |c___assert_fail_#in~3.offset_primed| () Int)
(declare-fun |c_write~init~int#0_#value| () Int)
(declare-fun |c_write~init~int#0_#value_primed| () Int)
(declare-fun |c_write~init~int#0_#ptr.base| () Int)
(declare-fun |c_write~init~int#0_#ptr.base_primed| () Int)
(declare-fun |c_write~init~int#0_#ptr.offset| () Int)
(declare-fun |c_write~init~int#0_#ptr.offset_primed| () Int)
(declare-fun |c_write~init~int#0_#sizeOfWrittenType| () Int)
(declare-fun |c_write~init~int#0_#sizeOfWrittenType_primed| () Int)
(declare-fun c_ULTIMATE.dealloc_~addr.base () Int)
(declare-fun c_ULTIMATE.dealloc_~addr.base_primed () Int)
(declare-fun c_ULTIMATE.dealloc_~addr.offset () Int)
(declare-fun c_ULTIMATE.dealloc_~addr.offset_primed () Int)
(declare-fun |c_aux_v_ULTIMATE.start_#t~ret8_3| () Int)
(echo "starting trace check")
(push 1)
(declare-fun |#memory_int#0_-1| () (Array Int (Array Int Int)))
(declare-fun |#StackHeapBarrier_-1| () Int)
(declare-fun |#length_-1| () (Array Int Int))
(declare-fun |#valid_-1| () (Array Int Int))
(declare-fun main_~c~0_4 () Int)
(declare-fun main_~d~0_4 () Int)
(declare-fun main_~b~0_4 () Int)
(declare-fun main_~a~0_4 () Int)
(declare-fun main_~b~0_5 () Int)
(declare-fun main_~c~0_6 () Int)
(declare-fun main_~d~0_7 () Int)
(declare-fun main_~d~0_8 () Int)
(declare-fun |main_#t~pre4_8| () Int)
(declare-fun main_~d~0_9 () Int)
(declare-fun |main_#t~pre4_9| () Int)
(declare-fun main_~d~0_10 () Int)
(declare-fun |main_#t~pre4_10| () Int)
(declare-fun main_~d~0_11 () Int)
(declare-fun |main_#t~pre4_11| () Int)
(declare-fun main_~d~0_12 () Int)
(declare-fun |main_#t~pre4_12| () Int)
(declare-fun main_~d~0_13 () Int)
(declare-fun |main_#t~pre4_13| () Int)
(declare-fun main_~c~0_15 () Int)
(declare-fun |main_#t~pre5_15| () Int)
(declare-fun main_~d~0_16 () Int)
(declare-fun main_~d~0_17 () Int)
(declare-fun |main_#t~pre4_17| () Int)
(declare-fun main_~d~0_18 () Int)
(declare-fun |main_#t~pre4_18| () Int)
(declare-fun main_~d~0_19 () Int)
(declare-fun |main_#t~pre4_19| () Int)
(declare-fun main_~d~0_20 () Int)
(declare-fun |main_#t~pre4_20| () Int)
(declare-fun main_~d~0_21 () Int)
(declare-fun |main_#t~pre4_21| () Int)
(declare-fun main_~d~0_22 () Int)
(declare-fun |main_#t~pre4_22| () Int)
(declare-fun main_~c~0_24 () Int)
(declare-fun |main_#t~pre5_24| () Int)
(declare-fun main_~d~0_25 () Int)
(declare-fun main_~d~0_26 () Int)
(declare-fun |main_#t~pre4_26| () Int)
(declare-fun main_~d~0_27 () Int)
(declare-fun |main_#t~pre4_27| () Int)
(declare-fun main_~d~0_28 () Int)
(declare-fun |main_#t~pre4_28| () Int)
(declare-fun main_~d~0_29 () Int)
(declare-fun |main_#t~pre4_29| () Int)
(declare-fun main_~d~0_30 () Int)
(declare-fun |main_#t~pre4_30| () Int)
(declare-fun main_~d~0_31 () Int)
(declare-fun |main_#t~pre4_31| () Int)
(declare-fun main_~c~0_33 () Int)
(declare-fun |main_#t~pre5_33| () Int)
(declare-fun main_~d~0_34 () Int)
(declare-fun main_~d~0_35 () Int)
(declare-fun |main_#t~pre4_35| () Int)
(declare-fun main_~d~0_36 () Int)
(declare-fun |main_#t~pre4_36| () Int)
(declare-fun main_~d~0_37 () Int)
(declare-fun |main_#t~pre4_37| () Int)
(declare-fun main_~d~0_38 () Int)
(declare-fun |main_#t~pre4_38| () Int)
(declare-fun main_~d~0_39 () Int)
(declare-fun |main_#t~pre4_39| () Int)
(declare-fun main_~d~0_40 () Int)
(declare-fun |main_#t~pre4_40| () Int)
(declare-fun main_~c~0_42 () Int)
(declare-fun |main_#t~pre5_42| () Int)
(declare-fun main_~d~0_43 () Int)
(declare-fun main_~d~0_44 () Int)
(declare-fun |main_#t~pre4_44| () Int)
(declare-fun main_~d~0_45 () Int)
(declare-fun |main_#t~pre4_45| () Int)
(declare-fun main_~d~0_46 () Int)
(declare-fun |main_#t~pre4_46| () Int)
(declare-fun main_~d~0_47 () Int)
(declare-fun |main_#t~pre4_47| () Int)
(declare-fun main_~d~0_48 () Int)
(declare-fun |main_#t~pre4_48| () Int)
(declare-fun main_~d~0_49 () Int)
(declare-fun |main_#t~pre4_49| () Int)
(declare-fun main_~c~0_51 () Int)
(declare-fun |main_#t~pre5_51| () Int)
(declare-fun main_~b~0_53 () Int)
(declare-fun |main_#t~pre6_53| () Int)
(declare-fun main_~c~0_54 () Int)
(declare-fun main_~d~0_55 () Int)
(declare-fun main_~d~0_56 () Int)
(declare-fun |main_#t~pre4_56| () Int)
(declare-fun main_~d~0_57 () Int)
(declare-fun |main_#t~pre4_57| () Int)
(declare-fun main_~d~0_58 () Int)
(declare-fun |main_#t~pre4_58| () Int)
(declare-fun main_~d~0_59 () Int)
(declare-fun |main_#t~pre4_59| () Int)
(declare-fun main_~d~0_60 () Int)
(declare-fun |main_#t~pre4_60| () Int)
(declare-fun main_~d~0_61 () Int)
(declare-fun |main_#t~pre4_61| () Int)
(declare-fun main_~c~0_63 () Int)
(declare-fun |main_#t~pre5_63| () Int)
(declare-fun main_~d~0_64 () Int)
(declare-fun main_~d~0_65 () Int)
(declare-fun |main_#t~pre4_65| () Int)
(declare-fun main_~d~0_66 () Int)
(declare-fun |main_#t~pre4_66| () Int)
(declare-fun main_~d~0_67 () Int)
(declare-fun |main_#t~pre4_67| () Int)
(declare-fun main_~d~0_68 () Int)
(declare-fun |main_#t~pre4_68| () Int)
(declare-fun main_~d~0_69 () Int)
(declare-fun |main_#t~pre4_69| () Int)
(declare-fun main_~d~0_70 () Int)
(declare-fun |main_#t~pre4_70| () Int)
(declare-fun main_~c~0_72 () Int)
(declare-fun |main_#t~pre5_72| () Int)
(declare-fun main_~d~0_73 () Int)
(declare-fun main_~d~0_74 () Int)
(declare-fun |main_#t~pre4_74| () Int)
(declare-fun main_~d~0_75 () Int)
(declare-fun |main_#t~pre4_75| () Int)
(declare-fun main_~d~0_76 () Int)
(declare-fun |main_#t~pre4_76| () Int)
(declare-fun main_~d~0_77 () Int)
(declare-fun |main_#t~pre4_77| () Int)
(declare-fun main_~d~0_78 () Int)
(declare-fun |main_#t~pre4_78| () Int)
(declare-fun main_~d~0_79 () Int)
(declare-fun |main_#t~pre4_79| () Int)
(declare-fun main_~c~0_81 () Int)
(declare-fun |main_#t~pre5_81| () Int)
(declare-fun main_~d~0_82 () Int)
(declare-fun main_~d~0_83 () Int)
(declare-fun |main_#t~pre4_83| () Int)
(declare-fun main_~d~0_84 () Int)
(declare-fun |main_#t~pre4_84| () Int)
(declare-fun main_~d~0_85 () Int)
(declare-fun |main_#t~pre4_85| () Int)
(declare-fun main_~d~0_86 () Int)
(declare-fun |main_#t~pre4_86| () Int)
(declare-fun main_~d~0_87 () Int)
(declare-fun |main_#t~pre4_87| () Int)
(declare-fun main_~d~0_88 () Int)
(declare-fun |main_#t~pre4_88| () Int)
(declare-fun main_~c~0_90 () Int)
(declare-fun |main_#t~pre5_90| () Int)
(declare-fun main_~d~0_91 () Int)
(declare-fun main_~d~0_92 () Int)
(declare-fun |main_#t~pre4_92| () Int)
(declare-fun main_~d~0_93 () Int)
(declare-fun |main_#t~pre4_93| () Int)
(declare-fun main_~d~0_94 () Int)
(declare-fun |main_#t~pre4_94| () Int)
(declare-fun main_~d~0_95 () Int)
(declare-fun |main_#t~pre4_95| () Int)
(declare-fun main_~d~0_96 () Int)
(declare-fun |main_#t~pre4_96| () Int)
(declare-fun main_~d~0_97 () Int)
(declare-fun |main_#t~pre4_97| () Int)
(declare-fun main_~c~0_99 () Int)
(declare-fun |main_#t~pre5_99| () Int)
(declare-fun main_~b~0_101 () Int)
(declare-fun |main_#t~pre6_101| () Int)
(declare-fun |main_#t~pre7_103| () Int)
(declare-fun main_~a~0_103 () Int)
(declare-fun main_~b~0_104 () Int)
(declare-fun main_~c~0_105 () Int)
(declare-fun main_~d~0_106 () Int)
(declare-fun main_~d~0_107 () Int)
(declare-fun |main_#t~pre4_107| () Int)
(declare-fun main_~d~0_108 () Int)
(declare-fun |main_#t~pre4_108| () Int)
(declare-fun main_~d~0_109 () Int)
(declare-fun |main_#t~pre4_109| () Int)
(declare-fun main_~d~0_110 () Int)
(declare-fun |main_#t~pre4_110| () Int)
(declare-fun main_~d~0_111 () Int)
(declare-fun |main_#t~pre4_111| () Int)
(declare-fun main_~d~0_112 () Int)
(declare-fun |main_#t~pre4_112| () Int)
(declare-fun main_~c~0_114 () Int)
(declare-fun |main_#t~pre5_114| () Int)
(declare-fun main_~d~0_115 () Int)
(declare-fun main_~d~0_116 () Int)
(declare-fun |main_#t~pre4_116| () Int)
(declare-fun main_~d~0_117 () Int)
(declare-fun |main_#t~pre4_117| () Int)
(declare-fun main_~d~0_118 () Int)
(declare-fun |main_#t~pre4_118| () Int)
(declare-fun main_~d~0_119 () Int)
(declare-fun |main_#t~pre4_119| () Int)
(declare-fun main_~d~0_120 () Int)
(declare-fun |main_#t~pre4_120| () Int)
(declare-fun main_~d~0_121 () Int)
(declare-fun |main_#t~pre4_121| () Int)
(declare-fun main_~c~0_123 () Int)
(declare-fun |main_#t~pre5_123| () Int)
(declare-fun main_~d~0_124 () Int)
(declare-fun main_~d~0_125 () Int)
(declare-fun |main_#t~pre4_125| () Int)
(declare-fun main_~d~0_126 () Int)
(declare-fun |main_#t~pre4_126| () Int)
(declare-fun main_~d~0_127 () Int)
(declare-fun |main_#t~pre4_127| () Int)
(declare-fun main_~d~0_128 () Int)
(declare-fun |main_#t~pre4_128| () Int)
(declare-fun main_~d~0_129 () Int)
(declare-fun |main_#t~pre4_129| () Int)
(declare-fun main_~d~0_130 () Int)
(declare-fun |main_#t~pre4_130| () Int)
(declare-fun main_~c~0_132 () Int)
(declare-fun |main_#t~pre5_132| () Int)
(declare-fun main_~d~0_133 () Int)
(declare-fun main_~d~0_134 () Int)
(declare-fun |main_#t~pre4_134| () Int)
(declare-fun main_~d~0_135 () Int)
(declare-fun |main_#t~pre4_135| () Int)
(declare-fun main_~d~0_136 () Int)
(declare-fun |main_#t~pre4_136| () Int)
(declare-fun main_~d~0_137 () Int)
(declare-fun |main_#t~pre4_137| () Int)
(declare-fun main_~d~0_138 () Int)
(declare-fun |main_#t~pre4_138| () Int)
(declare-fun main_~d~0_139 () Int)
(declare-fun |main_#t~pre4_139| () Int)
(declare-fun main_~c~0_141 () Int)
(declare-fun |main_#t~pre5_141| () Int)
(declare-fun main_~d~0_142 () Int)
(declare-fun main_~d~0_143 () Int)
(declare-fun |main_#t~pre4_143| () Int)
(declare-fun main_~d~0_144 () Int)
(declare-fun |main_#t~pre4_144| () Int)
(declare-fun main_~d~0_145 () Int)
(declare-fun |main_#t~pre4_145| () Int)
(declare-fun main_~d~0_146 () Int)
(declare-fun |main_#t~pre4_146| () Int)
(declare-fun main_~d~0_147 () Int)
(declare-fun |main_#t~pre4_147| () Int)
(declare-fun main_~d~0_148 () Int)
(declare-fun |main_#t~pre4_148| () Int)
(declare-fun main_~c~0_150 () Int)
(declare-fun |main_#t~pre5_150| () Int)
(declare-fun main_~b~0_152 () Int)
(declare-fun |main_#t~pre6_152| () Int)
(declare-fun main_~c~0_153 () Int)
(declare-fun main_~d~0_154 () Int)
(declare-fun main_~d~0_155 () Int)
(declare-fun |main_#t~pre4_155| () Int)
(declare-fun main_~d~0_156 () Int)
(declare-fun |main_#t~pre4_156| () Int)
(declare-fun main_~d~0_157 () Int)
(declare-fun |main_#t~pre4_157| () Int)
(declare-fun main_~d~0_158 () Int)
(declare-fun |main_#t~pre4_158| () Int)
(declare-fun main_~d~0_159 () Int)
(declare-fun |main_#t~pre4_159| () Int)
(declare-fun main_~d~0_160 () Int)
(declare-fun |main_#t~pre4_160| () Int)
(declare-fun main_~c~0_162 () Int)
(declare-fun |main_#t~pre5_162| () Int)
(declare-fun main_~d~0_163 () Int)
(declare-fun main_~d~0_164 () Int)
(declare-fun |main_#t~pre4_164| () Int)
(declare-fun main_~d~0_165 () Int)
(declare-fun |main_#t~pre4_165| () Int)
(declare-fun main_~d~0_166 () Int)
(declare-fun |main_#t~pre4_166| () Int)
(declare-fun main_~d~0_167 () Int)
(declare-fun |main_#t~pre4_167| () Int)
(declare-fun main_~d~0_168 () Int)
(declare-fun |main_#t~pre4_168| () Int)
(declare-fun main_~d~0_169 () Int)
(declare-fun |main_#t~pre4_169| () Int)
(declare-fun main_~c~0_171 () Int)
(declare-fun |main_#t~pre5_171| () Int)
(declare-fun main_~d~0_172 () Int)
(declare-fun main_~d~0_173 () Int)
(declare-fun |main_#t~pre4_173| () Int)
(declare-fun main_~d~0_174 () Int)
(declare-fun |main_#t~pre4_174| () Int)
(declare-fun main_~d~0_175 () Int)
(declare-fun |main_#t~pre4_175| () Int)
(declare-fun main_~d~0_176 () Int)
(declare-fun |main_#t~pre4_176| () Int)
(declare-fun main_~d~0_177 () Int)
(declare-fun |main_#t~pre4_177| () Int)
(declare-fun main_~d~0_178 () Int)
(declare-fun |main_#t~pre4_178| () Int)
(declare-fun main_~c~0_180 () Int)
(declare-fun |main_#t~pre5_180| () Int)
(declare-fun main_~d~0_181 () Int)
(declare-fun main_~d~0_182 () Int)
(declare-fun |main_#t~pre4_182| () Int)
(declare-fun main_~d~0_183 () Int)
(declare-fun |main_#t~pre4_183| () Int)
(declare-fun main_~d~0_184 () Int)
(declare-fun |main_#t~pre4_184| () Int)
(declare-fun main_~d~0_185 () Int)
(declare-fun |main_#t~pre4_185| () Int)
(declare-fun main_~d~0_186 () Int)
(declare-fun |main_#t~pre4_186| () Int)
(declare-fun main_~d~0_187 () Int)
(declare-fun |main_#t~pre4_187| () Int)
(declare-fun main_~c~0_189 () Int)
(declare-fun |main_#t~pre5_189| () Int)
(declare-fun main_~d~0_190 () Int)
(declare-fun main_~d~0_191 () Int)
(declare-fun |main_#t~pre4_191| () Int)
(declare-fun main_~d~0_192 () Int)
(declare-fun |main_#t~pre4_192| () Int)
(declare-fun main_~d~0_193 () Int)
(declare-fun |main_#t~pre4_193| () Int)
(declare-fun main_~d~0_194 () Int)
(declare-fun |main_#t~pre4_194| () Int)
(declare-fun main_~d~0_195 () Int)
(declare-fun |main_#t~pre4_195| () Int)
(declare-fun main_~d~0_196 () Int)
(declare-fun |main_#t~pre4_196| () Int)
(declare-fun main_~c~0_198 () Int)
(declare-fun |main_#t~pre5_198| () Int)
(declare-fun main_~b~0_200 () Int)
(declare-fun |main_#t~pre6_200| () Int)
(declare-fun |main_#t~pre7_202| () Int)
(declare-fun main_~a~0_202 () Int)
(declare-fun main_~c~0_204 () Int)
(declare-fun main_~d~0_204 () Int)
(declare-fun main_~b~0_204 () Int)
(declare-fun main_~a~0_204 () Int)
(assert (! true :named ssa_precond))
(assert (! (not false) :named ssa_postcond))
(assert (! true :named ssa_0_GlobVarAssigCall))
(assert (! true :named ssa_0_LocVarAssigCall))
(assert (! true :named ssa_0_OldVarAssigCall))
(assert (! (and (< 0 |#StackHeapBarrier_-1|) (= 12 (select |#length_-1| 3)) (= (select |#valid_-1| 3) 1) (= (select |#valid_-1| 2) 1) (= (select |#valid_-1| 1) 1) (= (select |#length_-1| 2) 11) (= (select (select |#memory_int#0_-1| 1) 1) 0) (= (select |#length_-1| 1) 2) (= (select (select |#memory_int#0_-1| 1) 0) 48) (= (select |#valid_-1| 0) 0)) :named ssa_1))
(assert (! true :named ssa_2_return))
(assert (! true :named ssa_3_GlobVarAssigCall))
(assert (! true :named ssa_3_LocVarAssigCall))
(assert (! true :named ssa_3_OldVarAssigCall))
(assert (! (and (= main_~a~0_4 0) (= main_~d~0_4 6) (= main_~c~0_4 6) (= main_~b~0_4 6)) :named ssa_4))
(assert (! (and (= main_~b~0_5 0) (< main_~a~0_4 6)) :named ssa_5))
(assert (! (and (< main_~b~0_5 6) (= main_~c~0_6 0)) :named ssa_6))
(assert (! (and (< main_~c~0_6 6) (= main_~d~0_7 0)) :named ssa_7))
(assert (! (and (< main_~d~0_7 6) (= (+ 1 main_~d~0_7) main_~d~0_8)) :named ssa_8))
(assert (! (and (< main_~d~0_8 6) (= (+ 1 main_~d~0_8) main_~d~0_9)) :named ssa_9))
(assert (! (and (< main_~d~0_9 6) (= (+ 1 main_~d~0_9) main_~d~0_10)) :named ssa_10))
(assert (! (and (< main_~d~0_10 6) (= (+ 1 main_~d~0_10) main_~d~0_11)) :named ssa_11))
(assert (! (and (< main_~d~0_11 6) (= (+ 1 main_~d~0_11) main_~d~0_12)) :named ssa_12))
(assert (! (and (< main_~d~0_12 6) (= (+ 1 main_~d~0_12) main_~d~0_13)) :named ssa_13))
(assert (! (<= 6 main_~d~0_13) :named ssa_14))
(assert (! (= main_~c~0_15 (+ main_~c~0_6 1)) :named ssa_15))
(assert (! (and (< main_~c~0_15 6) (= main_~d~0_16 0)) :named ssa_16))
(assert (! (and (< main_~d~0_16 6) (= (+ 1 main_~d~0_16) main_~d~0_17)) :named ssa_17))
(assert (! (and (< main_~d~0_17 6) (= (+ 1 main_~d~0_17) main_~d~0_18)) :named ssa_18))
(assert (! (and (< main_~d~0_18 6) (= (+ 1 main_~d~0_18) main_~d~0_19)) :named ssa_19))
(assert (! (and (< main_~d~0_19 6) (= (+ 1 main_~d~0_19) main_~d~0_20)) :named ssa_20))
(assert (! (and (< main_~d~0_20 6) (= (+ 1 main_~d~0_20) main_~d~0_21)) :named ssa_21))
(assert (! (and (< main_~d~0_21 6) (= (+ 1 main_~d~0_21) main_~d~0_22)) :named ssa_22))
(assert (! (<= 6 main_~d~0_22) :named ssa_23))
(assert (! (= main_~c~0_24 (+ main_~c~0_15 1)) :named ssa_24))
(assert (! (and (< main_~c~0_24 6) (= main_~d~0_25 0)) :named ssa_25))
(assert (! (and (< main_~d~0_25 6) (= (+ 1 main_~d~0_25) main_~d~0_26)) :named ssa_26))
(assert (! (and (< main_~d~0_26 6) (= (+ 1 main_~d~0_26) main_~d~0_27)) :named ssa_27))
(assert (! (and (< main_~d~0_27 6) (= (+ 1 main_~d~0_27) main_~d~0_28)) :named ssa_28))
(assert (! (and (< main_~d~0_28 6) (= (+ 1 main_~d~0_28) main_~d~0_29)) :named ssa_29))
(assert (! (and (< main_~d~0_29 6) (= (+ 1 main_~d~0_29) main_~d~0_30)) :named ssa_30))
(assert (! (and (< main_~d~0_30 6) (= (+ 1 main_~d~0_30) main_~d~0_31)) :named ssa_31))
(assert (! (<= 6 main_~d~0_31) :named ssa_32))
(assert (! (= main_~c~0_33 (+ main_~c~0_24 1)) :named ssa_33))
(assert (! (and (< main_~c~0_33 6) (= main_~d~0_34 0)) :named ssa_34))
(assert (! (and (< main_~d~0_34 6) (= (+ 1 main_~d~0_34) main_~d~0_35)) :named ssa_35))
(assert (! (and (< main_~d~0_35 6) (= (+ 1 main_~d~0_35) main_~d~0_36)) :named ssa_36))
(assert (! (and (< main_~d~0_36 6) (= (+ 1 main_~d~0_36) main_~d~0_37)) :named ssa_37))
(assert (! (and (< main_~d~0_37 6) (= (+ 1 main_~d~0_37) main_~d~0_38)) :named ssa_38))
(assert (! (and (< main_~d~0_38 6) (= (+ 1 main_~d~0_38) main_~d~0_39)) :named ssa_39))
(assert (! (and (< main_~d~0_39 6) (= (+ 1 main_~d~0_39) main_~d~0_40)) :named ssa_40))
(assert (! (<= 6 main_~d~0_40) :named ssa_41))
(assert (! (= main_~c~0_42 (+ main_~c~0_33 1)) :named ssa_42))
(assert (! (and (< main_~c~0_42 6) (= main_~d~0_43 0)) :named ssa_43))
(assert (! (and (< main_~d~0_43 6) (= (+ 1 main_~d~0_43) main_~d~0_44)) :named ssa_44))
(assert (! (and (< main_~d~0_44 6) (= (+ 1 main_~d~0_44) main_~d~0_45)) :named ssa_45))
(assert (! (and (< main_~d~0_45 6) (= (+ 1 main_~d~0_45) main_~d~0_46)) :named ssa_46))
(assert (! (and (< main_~d~0_46 6) (= (+ 1 main_~d~0_46) main_~d~0_47)) :named ssa_47))
(assert (! (and (< main_~d~0_47 6) (= (+ 1 main_~d~0_47) main_~d~0_48)) :named ssa_48))
(assert (! (and (< main_~d~0_48 6) (= (+ 1 main_~d~0_48) main_~d~0_49)) :named ssa_49))
(assert (! (<= 6 main_~d~0_49) :named ssa_50))
(assert (! (= main_~c~0_51 (+ main_~c~0_42 1)) :named ssa_51))
(assert (! (<= 6 main_~c~0_51) :named ssa_52))
(assert (! (= (+ main_~b~0_5 1) main_~b~0_53) :named ssa_53))
(assert (! (and (< main_~b~0_53 6) (= main_~c~0_54 0)) :named ssa_54))
(assert (! (and (< main_~c~0_54 6) (= main_~d~0_55 0)) :named ssa_55))
(assert (! (and (< main_~d~0_55 6) (= (+ 1 main_~d~0_55) main_~d~0_56)) :named ssa_56))
(assert (! (and (< main_~d~0_56 6) (= (+ 1 main_~d~0_56) main_~d~0_57)) :named ssa_57))
(assert (! (and (< main_~d~0_57 6) (= (+ 1 main_~d~0_57) main_~d~0_58)) :named ssa_58))
(assert (! (and (< main_~d~0_58 6) (= (+ 1 main_~d~0_58) main_~d~0_59)) :named ssa_59))
(assert (! (and (< main_~d~0_59 6) (= (+ 1 main_~d~0_59) main_~d~0_60)) :named ssa_60))
(assert (! (and (< main_~d~0_60 6) (= (+ 1 main_~d~0_60) main_~d~0_61)) :named ssa_61))
(assert (! (<= 6 main_~d~0_61) :named ssa_62))
(assert (! (= main_~c~0_63 (+ main_~c~0_54 1)) :named ssa_63))
(assert (! (and (< main_~c~0_63 6) (= main_~d~0_64 0)) :named ssa_64))
(assert (! (and (< main_~d~0_64 6) (= (+ 1 main_~d~0_64) main_~d~0_65)) :named ssa_65))
(assert (! (and (< main_~d~0_65 6) (= (+ 1 main_~d~0_65) main_~d~0_66)) :named ssa_66))
(assert (! (and (< main_~d~0_66 6) (= (+ 1 main_~d~0_66) main_~d~0_67)) :named ssa_67))
(assert (! (and (< main_~d~0_67 6) (= (+ 1 main_~d~0_67) main_~d~0_68)) :named ssa_68))
(assert (! (and (< main_~d~0_68 6) (= (+ 1 main_~d~0_68) main_~d~0_69)) :named ssa_69))
(assert (! (and (< main_~d~0_69 6) (= (+ 1 main_~d~0_69) main_~d~0_70)) :named ssa_70))
(assert (! (<= 6 main_~d~0_70) :named ssa_71))
(assert (! (= main_~c~0_72 (+ main_~c~0_63 1)) :named ssa_72))
(assert (! (and (< main_~c~0_72 6) (= main_~d~0_73 0)) :named ssa_73))
(assert (! (and (< main_~d~0_73 6) (= (+ 1 main_~d~0_73) main_~d~0_74)) :named ssa_74))
(assert (! (and (< main_~d~0_74 6) (= (+ 1 main_~d~0_74) main_~d~0_75)) :named ssa_75))
(assert (! (and (< main_~d~0_75 6) (= (+ 1 main_~d~0_75) main_~d~0_76)) :named ssa_76))
(assert (! (and (< main_~d~0_76 6) (= (+ 1 main_~d~0_76) main_~d~0_77)) :named ssa_77))
(assert (! (and (< main_~d~0_77 6) (= (+ 1 main_~d~0_77) main_~d~0_78)) :named ssa_78))
(assert (! (and (< main_~d~0_78 6) (= (+ 1 main_~d~0_78) main_~d~0_79)) :named ssa_79))
(assert (! (<= 6 main_~d~0_79) :named ssa_80))
(assert (! (= main_~c~0_81 (+ main_~c~0_72 1)) :named ssa_81))
(assert (! (and (< main_~c~0_81 6) (= main_~d~0_82 0)) :named ssa_82))
(assert (! (and (< main_~d~0_82 6) (= (+ 1 main_~d~0_82) main_~d~0_83)) :named ssa_83))
(assert (! (and (< main_~d~0_83 6) (= (+ 1 main_~d~0_83) main_~d~0_84)) :named ssa_84))
(assert (! (and (< main_~d~0_84 6) (= (+ 1 main_~d~0_84) main_~d~0_85)) :named ssa_85))
(assert (! (and (< main_~d~0_85 6) (= (+ 1 main_~d~0_85) main_~d~0_86)) :named ssa_86))
(assert (! (and (< main_~d~0_86 6) (= (+ 1 main_~d~0_86) main_~d~0_87)) :named ssa_87))
(assert (! (and (< main_~d~0_87 6) (= (+ 1 main_~d~0_87) main_~d~0_88)) :named ssa_88))
(assert (! (<= 6 main_~d~0_88) :named ssa_89))
(assert (! (= main_~c~0_90 (+ main_~c~0_81 1)) :named ssa_90))
(assert (! (and (< main_~c~0_90 6) (= main_~d~0_91 0)) :named ssa_91))
(assert (! (and (< main_~d~0_91 6) (= (+ 1 main_~d~0_91) main_~d~0_92)) :named ssa_92))
(assert (! (and (< main_~d~0_92 6) (= (+ 1 main_~d~0_92) main_~d~0_93)) :named ssa_93))
(assert (! (and (< main_~d~0_93 6) (= (+ 1 main_~d~0_93) main_~d~0_94)) :named ssa_94))
(assert (! (and (< main_~d~0_94 6) (= (+ 1 main_~d~0_94) main_~d~0_95)) :named ssa_95))
(assert (! (and (< main_~d~0_95 6) (= (+ 1 main_~d~0_95) main_~d~0_96)) :named ssa_96))
(assert (! (and (< main_~d~0_96 6) (= (+ 1 main_~d~0_96) main_~d~0_97)) :named ssa_97))
(assert (! (<= 6 main_~d~0_97) :named ssa_98))
(assert (! (= main_~c~0_99 (+ main_~c~0_90 1)) :named ssa_99))
(assert (! (<= 6 main_~c~0_99) :named ssa_100))
(assert (! (= (+ main_~b~0_53 1) main_~b~0_101) :named ssa_101))
(assert (! (<= 6 main_~b~0_101) :named ssa_102))
(assert (! (= main_~a~0_103 (+ main_~a~0_4 1)) :named ssa_103))
(assert (! (and (= main_~b~0_104 0) (< main_~a~0_103 6)) :named ssa_104))
(assert (! (and (< main_~b~0_104 6) (= main_~c~0_105 0)) :named ssa_105))
(assert (! (and (< main_~c~0_105 6) (= main_~d~0_106 0)) :named ssa_106))
(assert (! (and (< main_~d~0_106 6) (= (+ 1 main_~d~0_106) main_~d~0_107)) :named ssa_107))
(assert (! (and (< main_~d~0_107 6) (= (+ 1 main_~d~0_107) main_~d~0_108)) :named ssa_108))
(assert (! (and (< main_~d~0_108 6) (= (+ 1 main_~d~0_108) main_~d~0_109)) :named ssa_109))
(assert (! (and (< main_~d~0_109 6) (= (+ 1 main_~d~0_109) main_~d~0_110)) :named ssa_110))
(assert (! (and (< main_~d~0_110 6) (= (+ 1 main_~d~0_110) main_~d~0_111)) :named ssa_111))
(assert (! (and (< main_~d~0_111 6) (= (+ 1 main_~d~0_111) main_~d~0_112)) :named ssa_112))
(assert (! (<= 6 main_~d~0_112) :named ssa_113))
(assert (! (= main_~c~0_114 (+ main_~c~0_105 1)) :named ssa_114))
(assert (! (and (< main_~c~0_114 6) (= main_~d~0_115 0)) :named ssa_115))
(assert (! (and (< main_~d~0_115 6) (= (+ 1 main_~d~0_115) main_~d~0_116)) :named ssa_116))
(assert (! (and (< main_~d~0_116 6) (= (+ 1 main_~d~0_116) main_~d~0_117)) :named ssa_117))
(assert (! (and (< main_~d~0_117 6) (= (+ 1 main_~d~0_117) main_~d~0_118)) :named ssa_118))
(assert (! (and (< main_~d~0_118 6) (= (+ 1 main_~d~0_118) main_~d~0_119)) :named ssa_119))
(assert (! (and (< main_~d~0_119 6) (= (+ 1 main_~d~0_119) main_~d~0_120)) :named ssa_120))
(assert (! (and (< main_~d~0_120 6) (= (+ 1 main_~d~0_120) main_~d~0_121)) :named ssa_121))
(assert (! (<= 6 main_~d~0_121) :named ssa_122))
(assert (! (= main_~c~0_123 (+ main_~c~0_114 1)) :named ssa_123))
(assert (! (and (< main_~c~0_123 6) (= main_~d~0_124 0)) :named ssa_124))
(assert (! (and (< main_~d~0_124 6) (= (+ 1 main_~d~0_124) main_~d~0_125)) :named ssa_125))
(assert (! (and (< main_~d~0_125 6) (= (+ 1 main_~d~0_125) main_~d~0_126)) :named ssa_126))
(assert (! (and (< main_~d~0_126 6) (= (+ 1 main_~d~0_126) main_~d~0_127)) :named ssa_127))
(assert (! (and (< main_~d~0_127 6) (= (+ 1 main_~d~0_127) main_~d~0_128)) :named ssa_128))
(assert (! (and (< main_~d~0_128 6) (= (+ 1 main_~d~0_128) main_~d~0_129)) :named ssa_129))
(assert (! (and (< main_~d~0_129 6) (= (+ 1 main_~d~0_129) main_~d~0_130)) :named ssa_130))
(assert (! (<= 6 main_~d~0_130) :named ssa_131))
(assert (! (= main_~c~0_132 (+ main_~c~0_123 1)) :named ssa_132))
(assert (! (and (< main_~c~0_132 6) (= main_~d~0_133 0)) :named ssa_133))
(assert (! (and (< main_~d~0_133 6) (= (+ 1 main_~d~0_133) main_~d~0_134)) :named ssa_134))
(assert (! (and (< main_~d~0_134 6) (= (+ 1 main_~d~0_134) main_~d~0_135)) :named ssa_135))
(assert (! (and (< main_~d~0_135 6) (= (+ 1 main_~d~0_135) main_~d~0_136)) :named ssa_136))
(assert (! (and (< main_~d~0_136 6) (= (+ 1 main_~d~0_136) main_~d~0_137)) :named ssa_137))
(assert (! (and (< main_~d~0_137 6) (= (+ 1 main_~d~0_137) main_~d~0_138)) :named ssa_138))
(assert (! (and (< main_~d~0_138 6) (= (+ 1 main_~d~0_138) main_~d~0_139)) :named ssa_139))
(assert (! (<= 6 main_~d~0_139) :named ssa_140))
(assert (! (= main_~c~0_141 (+ main_~c~0_132 1)) :named ssa_141))
(assert (! (and (< main_~c~0_141 6) (= main_~d~0_142 0)) :named ssa_142))
(assert (! (and (< main_~d~0_142 6) (= (+ 1 main_~d~0_142) main_~d~0_143)) :named ssa_143))
(assert (! (and (< main_~d~0_143 6) (= (+ 1 main_~d~0_143) main_~d~0_144)) :named ssa_144))
(assert (! (and (< main_~d~0_144 6) (= (+ 1 main_~d~0_144) main_~d~0_145)) :named ssa_145))
(assert (! (and (< main_~d~0_145 6) (= (+ 1 main_~d~0_145) main_~d~0_146)) :named ssa_146))
(assert (! (and (< main_~d~0_146 6) (= (+ 1 main_~d~0_146) main_~d~0_147)) :named ssa_147))
(assert (! (and (< main_~d~0_147 6) (= (+ 1 main_~d~0_147) main_~d~0_148)) :named ssa_148))
(assert (! (<= 6 main_~d~0_148) :named ssa_149))
(assert (! (= main_~c~0_150 (+ main_~c~0_141 1)) :named ssa_150))
(assert (! (<= 6 main_~c~0_150) :named ssa_151))
(assert (! (= (+ main_~b~0_104 1) main_~b~0_152) :named ssa_152))
(assert (! (and (< main_~b~0_152 6) (= main_~c~0_153 0)) :named ssa_153))
(assert (! (and (< main_~c~0_153 6) (= main_~d~0_154 0)) :named ssa_154))
(assert (! (and (< main_~d~0_154 6) (= (+ 1 main_~d~0_154) main_~d~0_155)) :named ssa_155))
(assert (! (and (< main_~d~0_155 6) (= (+ 1 main_~d~0_155) main_~d~0_156)) :named ssa_156))
(assert (! (and (< main_~d~0_156 6) (= (+ 1 main_~d~0_156) main_~d~0_157)) :named ssa_157))
(assert (! (and (< main_~d~0_157 6) (= (+ 1 main_~d~0_157) main_~d~0_158)) :named ssa_158))
(assert (! (and (< main_~d~0_158 6) (= (+ 1 main_~d~0_158) main_~d~0_159)) :named ssa_159))
(assert (! (and (< main_~d~0_159 6) (= (+ 1 main_~d~0_159) main_~d~0_160)) :named ssa_160))
(assert (! (<= 6 main_~d~0_160) :named ssa_161))
(assert (! (= main_~c~0_162 (+ main_~c~0_153 1)) :named ssa_162))
(assert (! (and (< main_~c~0_162 6) (= main_~d~0_163 0)) :named ssa_163))
(assert (! (and (< main_~d~0_163 6) (= (+ 1 main_~d~0_163) main_~d~0_164)) :named ssa_164))
(assert (! (and (< main_~d~0_164 6) (= (+ 1 main_~d~0_164) main_~d~0_165)) :named ssa_165))
(assert (! (and (< main_~d~0_165 6) (= (+ 1 main_~d~0_165) main_~d~0_166)) :named ssa_166))
(assert (! (and (< main_~d~0_166 6) (= (+ 1 main_~d~0_166) main_~d~0_167)) :named ssa_167))
(assert (! (and (< main_~d~0_167 6) (= (+ 1 main_~d~0_167) main_~d~0_168)) :named ssa_168))
(assert (! (and (< main_~d~0_168 6) (= (+ 1 main_~d~0_168) main_~d~0_169)) :named ssa_169))
(assert (! (<= 6 main_~d~0_169) :named ssa_170))
(assert (! (= main_~c~0_171 (+ main_~c~0_162 1)) :named ssa_171))
(assert (! (and (< main_~c~0_171 6) (= main_~d~0_172 0)) :named ssa_172))
(assert (! (and (< main_~d~0_172 6) (= (+ 1 main_~d~0_172) main_~d~0_173)) :named ssa_173))
(assert (! (and (< main_~d~0_173 6) (= (+ 1 main_~d~0_173) main_~d~0_174)) :named ssa_174))
(assert (! (and (< main_~d~0_174 6) (= (+ 1 main_~d~0_174) main_~d~0_175)) :named ssa_175))
(assert (! (and (< main_~d~0_175 6) (= (+ 1 main_~d~0_175) main_~d~0_176)) :named ssa_176))
(assert (! (and (< main_~d~0_176 6) (= (+ 1 main_~d~0_176) main_~d~0_177)) :named ssa_177))
(assert (! (and (< main_~d~0_177 6) (= (+ 1 main_~d~0_177) main_~d~0_178)) :named ssa_178))
(assert (! (<= 6 main_~d~0_178) :named ssa_179))
(assert (! (= main_~c~0_180 (+ main_~c~0_171 1)) :named ssa_180))
(assert (! (and (< main_~c~0_180 6) (= main_~d~0_181 0)) :named ssa_181))
(assert (! (and (< main_~d~0_181 6) (= (+ 1 main_~d~0_181) main_~d~0_182)) :named ssa_182))
(assert (! (and (< main_~d~0_182 6) (= (+ 1 main_~d~0_182) main_~d~0_183)) :named ssa_183))
(assert (! (and (< main_~d~0_183 6) (= (+ 1 main_~d~0_183) main_~d~0_184)) :named ssa_184))
(assert (! (and (< main_~d~0_184 6) (= (+ 1 main_~d~0_184) main_~d~0_185)) :named ssa_185))
(assert (! (and (< main_~d~0_185 6) (= (+ 1 main_~d~0_185) main_~d~0_186)) :named ssa_186))
(assert (! (and (< main_~d~0_186 6) (= (+ 1 main_~d~0_186) main_~d~0_187)) :named ssa_187))
(assert (! (<= 6 main_~d~0_187) :named ssa_188))
(assert (! (= main_~c~0_189 (+ main_~c~0_180 1)) :named ssa_189))
(assert (! (and (< main_~c~0_189 6) (= main_~d~0_190 0)) :named ssa_190))
(assert (! (and (< main_~d~0_190 6) (= (+ 1 main_~d~0_190) main_~d~0_191)) :named ssa_191))
(assert (! (and (< main_~d~0_191 6) (= (+ 1 main_~d~0_191) main_~d~0_192)) :named ssa_192))
(assert (! (and (< main_~d~0_192 6) (= (+ 1 main_~d~0_192) main_~d~0_193)) :named ssa_193))
(assert (! (and (< main_~d~0_193 6) (= (+ 1 main_~d~0_193) main_~d~0_194)) :named ssa_194))
(assert (! (and (< main_~d~0_194 6) (= (+ 1 main_~d~0_194) main_~d~0_195)) :named ssa_195))
(assert (! (and (< main_~d~0_195 6) (= (+ 1 main_~d~0_195) main_~d~0_196)) :named ssa_196))
(assert (! (<= 6 main_~d~0_196) :named ssa_197))
(assert (! (= main_~c~0_198 (+ main_~c~0_189 1)) :named ssa_198))
(assert (! (<= 6 main_~c~0_198) :named ssa_199))
(assert (! (= (+ main_~b~0_152 1) main_~b~0_200) :named ssa_200))
(assert (! (<= 6 main_~b~0_200) :named ssa_201))
(assert (! (= main_~a~0_202 (+ main_~a~0_103 1)) :named ssa_202))
(assert (! (<= 6 main_~a~0_202) :named ssa_203))
(assert (! (or (not (= main_~c~0_198 6)) (not (= main_~d~0_196 6)) (not (= main_~b~0_200 6)) (not (= main_~a~0_202 6))) :named ssa_204))
(assert (! true :named ssa_205))
(check-sat)
(get-interpolants (and ssa_0_LocVarAssigCall ssa_precond ssa_0_GlobVarAssigCall ssa_0_OldVarAssigCall ssa_2_return ssa_1) (and ssa_3_OldVarAssigCall ssa_3_LocVarAssigCall ssa_3_GlobVarAssigCall) ssa_4 ssa_5 ssa_6 ssa_7 ssa_8 ssa_9 ssa_10 ssa_11 ssa_12 ssa_13 ssa_14 ssa_15 ssa_16 ssa_17 ssa_18 ssa_19 ssa_20 ssa_21 ssa_22 ssa_23 ssa_24 ssa_25 ssa_26 ssa_27 ssa_28 ssa_29 ssa_30 ssa_31 ssa_32 ssa_33 ssa_34 ssa_35 ssa_36 ssa_37 ssa_38 ssa_39 ssa_40 ssa_41 ssa_42 ssa_43 ssa_44 ssa_45 ssa_46 ssa_47 ssa_48 ssa_49 ssa_50 ssa_51 ssa_52 ssa_53 ssa_54 ssa_55 ssa_56 ssa_57 ssa_58 ssa_59 ssa_60 ssa_61 ssa_62 ssa_63 ssa_64 ssa_65 ssa_66 ssa_67 ssa_68 ssa_69 ssa_70 ssa_71 ssa_72 ssa_73 ssa_74 ssa_75 ssa_76 ssa_77 ssa_78 ssa_79 ssa_80 ssa_81 ssa_82 ssa_83 ssa_84 ssa_85 ssa_86 ssa_87 ssa_88 ssa_89 ssa_90 ssa_91 ssa_92 ssa_93 ssa_94 ssa_95 ssa_96 ssa_97 ssa_98 ssa_99 ssa_100 ssa_101 ssa_102 ssa_103 ssa_104 ssa_105 ssa_106 ssa_107 ssa_108 ssa_109 ssa_110 ssa_111 ssa_112 ssa_113 ssa_114 ssa_115 ssa_116 ssa_117 ssa_118 ssa_119 ssa_120 ssa_121 ssa_122 ssa_123 ssa_124 ssa_125 ssa_126 ssa_127 ssa_128 ssa_129 ssa_130 ssa_131 ssa_132 ssa_133 ssa_134 ssa_135 ssa_136 ssa_137 ssa_138 ssa_139 ssa_140 ssa_141 ssa_142 ssa_143 ssa_144 ssa_145 ssa_146 ssa_147 ssa_148 ssa_149 ssa_150 ssa_151 ssa_152 ssa_153 ssa_154 ssa_155 ssa_156 ssa_157 ssa_158 ssa_159 ssa_160 ssa_161 ssa_162 ssa_163 ssa_164 ssa_165 ssa_166 ssa_167 ssa_168 ssa_169 ssa_170 ssa_171 ssa_172 ssa_173 ssa_174 ssa_175 ssa_176 ssa_177 ssa_178 ssa_179 ssa_180 ssa_181 ssa_182 ssa_183 ssa_184 ssa_185 ssa_186 ssa_187 ssa_188 ssa_189 ssa_190 ssa_191 ssa_192 ssa_193 ssa_194 ssa_195 ssa_196 ssa_197 ssa_198 ssa_199 ssa_200 ssa_201 ssa_202 ssa_203 ssa_204 (and ssa_205 ssa_postcond))
(echo "finished trace check")
(pop 1)
(echo "starting trace check")
(push 1)
(declare-fun |#memory_int#0_-1| () (Array Int (Array Int Int)))
(declare-fun |#StackHeapBarrier_-1| () Int)
(declare-fun |#length_-1| () (Array Int Int))
(declare-fun |#valid_-1| () (Array Int Int))
(assert (! true :named ssa_precond))
(assert (! (not true) :named ssa_postcond))
(assert (! (and (< 0 |#StackHeapBarrier_-1|) (= 12 (select |#length_-1| 3)) (= (select |#valid_-1| 3) 1) (= (select |#valid_-1| 2) 1) (= (select |#valid_-1| 1) 1) (= (select |#length_-1| 2) 11) (= (select (select |#memory_int#0_-1| 1) 1) 0) (= (select |#length_-1| 1) 2) (= (select (select |#memory_int#0_-1| 1) 0) 48) (= (select |#valid_-1| 0) 0)) :named ssa_0))
(assert (! true :named ssa_1_return))
(assert (! true :named ssa_-2_PendingContext))
(assert (! true :named ssa_-2_LocVarAssignPendingContext))
(assert (! true :named ssa_-2_OldVarAssignPendingContext))
(check-sat)
(get-interpolants (and ssa_0 ssa_precond) (and ssa_-2_PendingContext ssa_-2_LocVarAssignPendingContext ssa_-2_OldVarAssignPendingContext ssa_1_return ssa_postcond))
(echo "finished trace check")
(pop 1)
(exit)
